
 102   30
  10   10   10   10   10   10   10   10   10   10   10   10   10   10   10   10   10   10   10   10   10   10   10   10   10   10   10   10   10   10

   0   0   0   0   0   0   0   0   0   0   0   0   0   0   0   0   0   0   0   0   0   0   0   0   0   0   0   0   0   0   0  20 2 3 4 5 6 7 8 10 11 12 14 15 17 21 22 23 28 31 36 54 
   8   0   0   1   0   0   0   0   0   0   0   0   0   0   0   1   0   0   0   1   0   0   0   0   1   0   0   0   0   0   0  13 101 68 63 62 53 50 42 40 38 37 32 30 9 
  10   0   0   0   0   0   0   0   0   0   0   0   0   0   0   0   2   6   0   0   0   0   0   0   0   0   0   0   0   1   0  11 62 47 46 42 41 40 29 27 20 18 16 
   3   0   0   6   0   1   0   0   0   0   0   0   0   4   0   0   4   6   0   0   0   0   0   0   0   2   0   0   0   0   0  13 67 66 64 63 56 51 50 43 40 35 27 24 19 
   4   0   0   0   0   0   0   0   0   0   0   0   2   2   0   0   0   0   0   0   0   0   0   0   0   0   1   0   0   0   0  11 99 71 60 56 50 48 46 38 32 26 13 
   7   1   0   0   1   4   0   0   0   0   0   0   0   0   4   0   0   0   0   0   0   0   0   0   0   0   0   0   0   0   0  15 99 66 65 64 63 61 59 56 46 43 37 35 34 32 25 
   5   0   0   0   0   0   0   0   3   2   0   0   0   8   3   0   0   0   0   0   0   0   0   0   0   0   0   0   0   0   0  13 68 64 62 60 57 55 52 47 46 41 32 29 26 
   7   0   0   0   0   0   0   0   4   0   0   0   0   7   0   0   0   0   0   0   0   0   0   0   0   5   0   0   0   0   1  12 101 64 62 58 55 53 49 47 45 40 37 26 
   2   8   0   0   0   0   0   0   7   0   0   0   0   0   0   0   0   0   1   0   0   0   0   0   0   0   0   0   0   2   5  15 98 92 71 70 66 64 60 58 51 47 46 44 43 29 24 
   3   0   0   0   0   0   0   0   0   0   0   0   0   0   0   0   0   0   0   0   0   0   0   0   0   0   0   1   0   0   0  13 97 83 65 64 62 61 56 51 50 45 44 40 34 
   9   7   0   5   0   0   0   0   0   3   0   0   0   0   0   0   0   0   0   0   0   0   0   0   0   0   0   0   0   0   0  17 100 98 95 93 89 70 66 65 64 61 60 58 57 53 51 42 32 
   8   0   0   0   0   0   0   0   0   0   0   1   0   0   5   0   6  10   0   0   0   0   0   0   0   0   0   0   0   0   0  16 98 97 95 70 69 68 67 65 64 62 61 60 57 55 43 41 
   9   0   0   4   0   0   0   0   0   0   0   4   0   0   0   0   0   0   6   0   0   0   0   1   0   0   4   0   1   0   0  11 101 97 95 65 64 61 49 45 43 34 33 
   3   0   0   8   0   4   0   0   0   0   0   0   0   7   0   0   0   0   5   0   0   0   0   0   0   0   6   0   0   0   0  14 99 98 95 92 71 65 64 62 61 59 57 55 49 34 
   7   0   0   0   0   0   0   0   0   0   0   0   0   0   6   9   0   0   0   0   0   0   0   0   6   0   0   0   0   0  10  10 99 98 91 65 64 63 55 52 41 32 
   3   0   2   0   0   0   0   0   5   0   1   0   4   0   0   0   0   0   0   0   0   1   0   0   0   0   0   0   0   0   0  21 100 99 97 96 95 94 93 92 90 87 81 70 69 68 67 64 63 60 57 55 53 
   9   0   0   0   0   0   0   0   0   0   0   0   0   0   0   0   0   0   0   0   0   0   0   0   0  10   0   0   6   0   0  16 99 98 97 95 89 88 87 83 81 71 70 65 58 57 47 39 
   3   0   0   0   0   0   0   0   0   0   0   0   0  10   3   0   7   0   9   0   0   0   0   0   0   0  10   0   0   0   0  14 97 96 95 91 89 79 78 67 64 59 58 56 49 37 
   8   0   0   0   0   6   0   0   0   0   0   0   0   0   0   8   0   6   0   0   0   0   0   0   0   0   0   6   0   5   0  10 98 95 89 71 70 62 58 48 44 32 
   2   0   0   0   0   8   0   1   0   4   0   0   0   0   0   0   5   0   0   7   0   7   0   0   7   0   0   0   0   0   0  10 98 91 89 71 66 65 64 58 50 32 
   8   0  10   0   0   0   0   0   0   0   0   0   9   0   0   0   0   2   0   4   0   0   0   0   0   0   0   0   0   0   0   9 100 98 90 70 62 61 55 45 32 
   2   0   0   0   0   0   0   0  10   4   0   0   0   0   0   0   0   0   0   0   3   0   1   0   0   0   0   0   0   0   0  11 100 95 92 91 69 64 59 58 57 55 43 
   3   0   2   9   0   0   0   0   0   0   0   0   0   0   0   0   0   4   0   0   0   0   0   0   7   0   0   0   0   0   0  20 99 96 95 94 93 92 90 89 88 87 86 85 78 77 76 74 71 68 59 57 
   4   0   0   0   0   0   0   4   0   0   0   0   0   0   0   0   0   8   0   0   0   0   0   0   0   7   0   0   0   0   0  17 100 99 97 96 95 93 87 86 85 80 78 73 69 65 59 57 55 
   1   0   0   0   0   0   0   6   2   0   8   0   0   0   0   0   0   0   0   0   0   0   0   0   0   0   0   0   0   0   0  19 101 100 97 95 94 93 92 91 87 86 85 83 78 77 73 71 69 58 57 
   6   4   0   0   0   0   0   0   0   0   0   0   0   0   0   0   0   0   0   6   5   0   0   0   8   6   0   0   0   0   0  14 100 98 97 96 95 90 89 88 84 80 67 65 61 59 
   2   0   7   0   0   0   0   0   0   0   0   0   0   0   7   4   0   0   0   0   0   0   9   8   0   0   0   0   5   0   0  14 99 98 97 92 91 87 81 76 75 74 71 68 61 55 
  10   0  10   0   0   0   1   9  10   0   0   0   0   0   5   0   0   0   0   0   0   0   0   0   0   7   0   0   0   0   0  15 100 99 94 92 91 89 86 85 84 83 82 81 72 70 50 
   8   0   0   0   0   0   0   0   3   0   0   0   0   0   0   0   0   0   0   0   0   0   0   0   6   0   0   7   0   0   0  14 100 96 91 90 89 84 82 79 78 77 75 73 65 49 
   4   0   0   0   0   0   0   0   9   4   0   0   0   0   0   0   0   6   0   0   0   0   0   6   0   0   6   0   0   0   0  13 100 93 91 88 87 86 81 78 74 73 64 57 46 
   4   0   0   0   0   0   0   7   0   0   0   0   0   6   0   0   5   0   0   8   0   6   5   9   0   5   0   0   0   8   0  13 101 99 95 94 88 86 84 83 81 79 69 60 58 
   8   0   0   0   0   0   0   0   0   6   0   0   0   0   0   0   0   0   0   0   0   0   0   0   0   0   0   0   0   9   0  12 97 92 84 82 81 80 79 78 77 75 73 49 
   8   0   0   0   0   0   0   0   0   0   0   0   0   0   0   0   0   0   0   0   0   0   0   0   0   0   0   9   0   0   0  12 94 90 88 83 81 80 77 75 70 69 62 57 
   1   0   3   0   0   9   0   9   0   0   0   7   0   0   0   0   0   0   0   8   0   0   8   0   0   0   0   0   0   0   0  14 96 93 91 89 88 87 86 85 84 79 78 77 70 58 
  10   0   0   0   0   0   0   0  10   7   0   0   0   0   0   0   0   0   0   0   0   0   0   0   0   6   0   0   0   0   0  11 95 93 89 87 86 83 81 78 76 57 53 
   1   0  10   0   0   0  10   0   0   0   0   0  10   0   0   0   0   0   0   0   0   0   0   5   0   0   0   0   0   0   0  12 97 94 92 85 83 81 80 75 74 73 64 55 
   2   0   0   0   0   0   0   0   5   7   0   0   0   0   0   0  10   0   0   0   0   0   0   0   0   0   0   0   8   0   0  13 93 92 87 86 84 83 82 77 75 74 71 70 69 
   8   0   0   6   0   0   6   0   0   0   0   5   0   0   7   8   0   0   0   0   0   0   0   0   0   0   0   0   0   0   5  12 93 92 91 89 88 82 80 79 76 73 69 59 
   7   0   0   0   0   0   0   0   0   0   8   5   6   0   0   0   7   0   0   0   0   0   0   0   0   0   0   0   0   0   0   8 94 92 91 77 75 67 64 60 
   7   0   0   0   0   0   0   0   0   0   0  10   0   0   0   0   0   0   0   0   0   0   0   8   0   0   9   0   0   0   0  10 98 84 82 81 77 76 75 73 69 60 
   7   0   0   0   0   7   0   7   4   0   0   0   0   0   0   0   0   0   7   4   0   6   0   0   0   0   0   0   0   0   4   9 94 82 78 77 76 73 71 66 58 
  10   0   0   0   0   0   0   0   0   0   7   0   6   0   0   0   0   0   5   0   0   0   0   0   0   0   0   0   0   8   0  13 96 94 86 85 84 82 81 77 76 75 74 73 72 
   7   0   0   0   0   0   4   0   0   0   0   0   0   0   0   4   0   0   0   0   0   5   0   0   0   0   0   0   0   0   0  12 96 93 86 84 83 82 79 78 77 76 75 73 
   5   0   0   0   0   0   0   0   0   0   0   0   0   6   0   0   0   0   0   0   0   0   0   0   0   0   0   0   0   0   0   8 96 91 88 85 81 78 75 57 
   2   0   0   0   0   0   0   0   0   5   0   0   0   0   0   6   0   0   0   0   0   0   0   0   0   5   0   0   0   0   0   9 96 92 87 86 85 82 77 76 66 
   4   0   0   0   0   0   0   0   0   4   9   0   0   0   0   0   0   0   0   0   0   0   0   0   0   0   0   0   0   0   0   8 83 82 80 79 77 76 75 69 
   1   0   0   0   0   9   0   3   0   0   0   0   0   0   0   0   0   0   5   0   5   7   0   0   0   7   0   0   0   0   0   8 93 90 82 79 77 74 73 72 
   7   0   0   0   0   0   0   0   0   0   0   0   4   0   8   0   0   0   5   0   0   0   0   0   0   0   0   0   0   8   0   8 94 88 82 81 79 74 73 72 
   4   0   0   0   0   0   0   0   0   0   0   0   0   0   0   0   0   0   0   0   0   0   0   0   0   0   0   0   0   0   0   7 88 87 86 85 83 74 69 
   8   0   0   0   5   0   0   0   0   0   0   0   0   0   0   0   6   0   0   0   0   0   0   0   0   0   5   0   0   0   0   7 95 93 87 79 78 76 74 
   2   0   4   0   0   0   0   0   0   0   5   0   0   0   4   0   0   0   0   0   0   0   0   0   0   0   0   0   0   0   0   7 99 90 81 80 76 74 73 
  10   0   0   0   0   0   0   4   0   5   6   6   0   0   0   0   0   0   0   7   0   0   0   0   0   0   0   0   0   0   0   5 95 78 77 71 70 
   3   0   0   0   0   0   0   0   7   0   0   0   0   0   0   0   0   0   4   0   0   0   0   3   0   0   0   0   0   0   9   6 91 84 80 77 74 72 
   4   0   0   0   0   0   0   0   0   0   0   0   0   0   0   0   0   0   0   0   4   0   5   0   0   0   9   8   0   0   0   6 96 93 92 91 87 72 
  10   0   0   0   0   0   0   0   0   0   6   0   0   0   4   0   0   5   0   0   0   0   0   0   0   0   0   0   0   0   0   5 89 88 79 77 72 
   5   0   6   0   6   0   8   0   0   0   0   0   8   0   0   0   0   0   0   0  10   0   6   0   0   0   0   8   0   0   0   5 98 85 84 80 73 
   4   0   0   0   0   0   0   0   2   5   0   0   0   0   0   0   0   0   0   0   0   0   6   0   0   0   0   0   8   6   0   4 84 82 79 72 
   7   0   0   0   0   0   0   0   0   0   0   0   0   0   0   0   0   0   0   0   0   0   0   0   0   0   0   0   0   0   0   4 90 80 75 74 
   9   3   0   0   0   0   0   0   0   0   0   0   0   0   0   0   0   0   0   0   0   0   0   0   0   0   2   0   0   0   0   4 83 81 75 72 
   6   0   0   0   0   0   0   0   0   0   0   0   0   0   0   6   0   0   0   0   0   0   0   0   4   0   0   0   9   0   0   3 85 78 74 
   9   0   8   0   0   0   5   0   0   0   0   0   0   7   0   0   0  10   0   0   0   0   0   5   0   0   0   0   5   0   0   3 94 85 78 
   7   6   0   0   0   0   0   0   0   0   0   0   0   0  10   0   0   0   0   0   0   0   4   0   0   0   0   0   0   0   0   3 87 78 76 
   2   0   0   6   0  10   0   0   0   0   0   0   0   5   0   0   0   0   0   0   0   0   0   0   0   0   0   0   0   0   0   3 79 76 75 
   4   0   0   0   0   0   0   0   0   0   0   0   4   0   0   0   0   0   0   0   0   0   0   0   0   0   0   0   7   0   4   2 76 72 
   3   0   0   0   0   0   0   0   0   0   0   0   0   0   0   0   0   0   0   0   0   0   0   0   0   0   0   0   0   0   0   2 76 74 
   8   0   7   0   0   0   0   0   0   0   0   0   0   0   0   0   0   0   0   0   0   0   0   5   8   0   0   0   0   8   0   2 81 75 
   4   0   0   0   0   0   4   0   0   0   0   3   0   0   0   0   0   0   8   5   0   0   0   0   0   0   0   0   0   0   0   2 86 73 
   8   0   0   0   0   0   0   0   0   0   0   0   0   5   0   0   0   0   0   6   7   0   0   0   0   0   0   4   0   0   0   2 83 73 
   6   0   0   9   0   0   7   0   0   0   0   0   0   0   7   7   0   3   8   0   0   0   6   0   0   0   0   0   0   0   0   1 72 
   3   0   0   0   0   0   0   0   0   0   0   0   6   0  10   0   0   0   0   0   0   0   4   0   0   0   0   0   0   0   0   1 73 
  10   0   0   0   0   0   0   0   0   0   5   0   0   0   0   0   0   0   0   0   0   0   0   0   3   3   0   0   0   0   5   1 80 
   3   0   0   0   0   0   7   0   9   7   0   0   0   0   0   0   0   0   0   0   0   0   0   0   0   0   0   0   0   0   8   1 102
   8   0   0   0   6   0   0   0   0   0   0   0   0   0   0   0   0   0   0   8   0   0   0   0   0   0   0   0   0   0   0   1 102
  10   0   7   0   0   0   0   0   0   8   0   0   0   0   0   0   0   8   0   0   0   7   0   8   0   0   4   0   0   0   0   1 102
   3   0   0   7   0   0   0   0   6   0   0   0   0   0   0   0   0   0   0   0   0   0   0   0   0   0   0   0   0   0   0   1 102
   1   0   0   0   0   0   0   0   3   6   0   0   0   0   0   0   3   0   0   0   0   0   0   0   0   0   0   0   0   0   0   1 102
  10   0   0   0   0   0   0   0   0   0   0   0   0   0   0   0   0   2   0   0   0   0   0   0   0   0   0   0   0   0   0   1 102
   5   8   0   0   0   0   0   0   0   0   0   0   0   0   0   0   0   0   0   0   0   0   0   7   0   0   0   0   0   0   0   1 102
   5   0   0   0   0   0   0   0   8   5   0   0   0   0   0   0   0   0   0   0   8   0   0   0   0   0   0   0  10   0   0   1 102
   1   0   0   4   6   0   0   0   0   9   6   0   0   5   0   0   0   0   0   0   0   0   0   0   0   0   0   0   0   0   8   1 102
   9   0   0   0   0   0   0   0   0  10   0  10   0   0   0   0  10   0   0   0   0   0   0   0   0   0   6   4   0   5   0   1 102
   1   0   7   0   0   0   0   0   0   0   0   0   0   0   0   0   0   0   0   0   0   0  10   0   0   0   0   6   0   0   0   1 102
   6   0   0   0   0   0   0   0   0   0   0   0   0   0   0   0   0   0   0   0   0   0   0   0   0   0   9   0   0   0   0   1 102
   2   0   0   0  10   0   0   0   0   0   0   0   0   0   0   0   0   0   6   0   0   7   0   0   0   0   0   0   0   0   0   1 102
   3   0   0   0   0   0   0   0   0   9   0   0   0   0   0   0   0   0   0   0   0   0   0   0   0   0   0   0   0   0   0   1 102
   7   9   0   0   0   0   0   0   0  10   0   0   0   0   0   5   0   0   0   0   5   0   0   6   0   7   0   0   0   0   0   1 102
   8   7   0   0   8   0   0  10   0   0   0   0   0   0   5   0   0   5   0   0   0   0   0   0   0   0   0   0   0   0   0   1 102
   8   0   0   0   0   0   5   0   7   0   5   0   0   6   0   0   0   0   0   0   0   0   0   0   0   0   0   0   0   0   7   1 102
   5   7   0   0   0   0   0   7   0   0   0   9   0   0   0   0   0   0   0   0   0   0   0   6   0   0   0   0   0   0   0   1 102
   7   0   0   0   0   0   0   5   0   0   0   0   0   0   0   0   0   0   0   8   0   8   0   0   0   0   7   0   0   0   0   1 102
   4   0   4   0   0   0   0   0   0   0   0   0   0   0   0   0   0   9   0   0   0   0   8   0   0   0   0   0   3   0   0   1 102
  10   0   0   0   0   0   0   0   0   0   0   0   0   0   5   0   0   0   0   0   0   0   0   0   8   8   0   0   0   0   0   1 102
   1   6   0   0   0   0   0   0   0   0   0   8   0   0   0   0   0   0   0   6   0   0   0   0   0   0   0   7   4   0   0   1 102
   6   0   0   0   0   0   0   0   0   0   5   0   0   0   8   0   0   0   0   0   0   0   0   0   0   0   0   6   0   0   0   1 102
   3   0   4   0   0   4   0   0   0   0   0   0   7   0   0   0   6   0   0   0   0   0   0   0   0   0   0   0   8   0   0   1 102
   3   0   0   0   0   0   9   0   0   0   0   0   0   0   0   7   0   0   7   0   0   0   0   7   0   0   0   0   4   0   0   1 102
   7   0   0   0   0   0   6   0   0   0   0   0   6   6   0   0   0   0   0   0   0   0   0   0   9   6   0   0   0   0   0   1 102
   4   0   0   0   0   4   0   0   0   6   7   5   0   0   7   0   0   0   0   0   0   0   0   0   5   0   0   0   0   6   0   1 102
   4   0   0   0   0   0   0   0   0   0   6   0   0   0   0   0   0   0   0   0   7   0   0   0   0   0   0   0   0   0   0   1 102
   8   0   7   0   0   0   0   0   0   0   0   0   0   0   0   0   7   0   0   0   0   0   0   0   0   6   0   0   0   0   0   1 102
  10   0   4   7   0   0   0   0   0   0   0   5   0   0   0   7   0   0   8   0   0   0   0   0   0   0   0   0   0   0   0   1 102
   0   0   0   0   0   0   0   0   0   0   0   0   0   0   0   0   0   0   0   0   0   0   0   0   0   0   0   0   0   0   0   0 
